(declare-const v0 Bool)
(declare-const v1 Bool)
(declare-const v2 Bool)
(declare-const v3 Bool)
(declare-const v4 Bool)
(assert (edge (or v0 v1) (or (not v2) (not v3))))
(assert (edge (or (not v1) v2 (not v3)) (or v1 (not v3))))
(assert (edge (or v2 v3 (not v0)) v1))
(assert (edge (or v4 (not v2)) (or v0 v1 v3)))
(assert (edge true v4))
(assert (not (edge true (not v3))))